10
1 0 1
2 0 17
2 1 8
3 0 24
3 1 45
3 2 20
4 0 9
4 1 13
4 2 49
4 3 44
5 0 21
5 1 32
5 2 24
5 3 37
5 4 10
6 0 19
6 1 28
6 2 28
6 3 3
6 4 35
6 5 48
7 0 1
7 1 39
7 2 28
7 3 20
7 4 11
7 5 40
7 6 15
8 0 23
8 1 5
8 2 33
8 3 37
8 4 3
8 5 7
8 6 38
8 7 15
9 0 35
9 1 4
9 2 34
9 3 40
9 4 44
9 5 9
9 6 35
9 7 36
9 8 28
